17	4	3
28	28	14	27	54	28	18	
0	0	0	0	0	10	2	1	1	6	2	3	2	3	4
8	6	0	0	0	4	9	7	2	1	1	2	7	17
7	10	0	4	6	9	2	3	3	7	7	3	5	9	17
3	8	0	0	8	9	6	2	10	6	5	2	10	17
7	0	10	5	3	1	8	8	2	7	1	3	6	8	17
75	0	9	0	10	6	6	3	7	6	9	1	17
225	0	0	0	4	8	10	8	5	1	8	1	17
75	0	0	0	3	5	9	9	8	2	5	1	12
225	0	6	0	0	5	1	1	6	1	7	1	13
100	0	10	8	10	10	1	4	7	3	10	3	11	14	16
75	7	0	0	8	8	8	6	1	4	1	1	17
225	0	10	9	0	9	2	1	7	6	1	1	17
4	6	0	0	0	4	1	10	3	8	2	1	15
10	5	9	0	5	8	3	2	8	8	2	1	17
7	1	2	0	7	5	8	3	8	5	5	1	17
2	0	5	0	7	8	3	2	3	3	6	1	17
0	0	0	0	0	4	2	7	4	8	3	0
